
Log started (V11.0.0) Mon Apr 14 10:32:47 2008

Tried aggregator 1 time.
Reduced MIP has 540 rows, 20001 columns, and 40040 nonzeros.
Presolve time =    0.14 sec.
Clique table members: 500.
MIP emphasis: balance optimality and feasibility.
MIP search method: dynamic search.
Parallel mode: none, using 1 thread.
Root relaxation solution time =    0.70 sec.

        Nodes                                         Cuts/
   Node  Left     Objective  IInf  Best Integer     Best Node    ItCnt     Gap

*     0+    0                        25023.0000       37.7766     1146   99.85%
*     0+    0                           47.0000       37.7766     1146   19.62%
      0     0       38.0000    70       47.0000      Fract: 7     1192   19.15%
*     0+    0                           42.0000       38.0000     1192    9.52%
*     0+    0                           41.0000       38.0000     1192    7.32%

Repeating presolve.
Tried aggregator 1 time.
MIP Presolve eliminated 0 rows and 11970 columns.
Reduced MIP has 540 rows, 8031 columns, and 16100 nonzeros.
Tried aggregator 1 time.
Represolve time =    0.45 sec.
Clique table members: 940.
MIP emphasis: balance optimality and feasibility.
MIP search method: dynamic search.
Parallel mode: none, using 1 thread.
Root relaxation solution time =    0.28 sec.

        Nodes                                         Cuts/
   Node  Left     Objective  IInf  Best Integer     Best Node    ItCnt     Gap

      0     0       38.0000    71       41.0000       38.0000      929    7.32%
*     0+    0                           40.0000       38.0000      929    5.00%
      0     2       38.0000    71       40.0000       38.0000      929    5.00%
    100    93       39.0000    55       40.0000       38.0000     6171    5.00%
    200   164       39.0000    65       40.0000       38.0000    16377    5.00%
    300   249       39.0000    97       40.0000       38.0000    26243    5.00%
    400   340       39.0000    81       40.0000       38.0000    32324    5.00%
    500   427       39.0000    53       40.0000       38.0000    39956    5.00%
    600   455       39.0000    28       40.0000       38.0000    48395    5.00%
    700   450       39.0000    62       40.0000       38.0000    62148    5.00%
    800   447       39.0000    46       40.0000       38.0000    73081    5.00%
    900   461       39.0000    67       40.0000       38.0000    81967    5.00%
   1000   476       39.0000    47       40.0000       38.0000    90298    5.00%
Elapsed time =  72.48 sec. (tree size =  4.74 MB, solutions = 5)
   1100   502       39.0000    59       40.0000       38.0000    96888    5.00%
   1200   573       38.0000   116       40.0000       38.0000   109452    5.00%
*  1209+   35                           39.0000       38.0000   110249    2.56%

Cover cuts applied:  296
Mixed integer rounding cuts applied:  9
Gomory fractional cuts applied:  3

Solution pool: 6 solutions saved.

MIP - Integer optimal solution:  Objective = 3.9000000000e+001
Solution time =  104.59 sec.  Iterations = 164395  Nodes = 1247


Incumbent solution
Variable Name           Solution Value
Cmax                         39.000000
X_1_16                        1.000000
X_2_13                        1.000000
X_3_12                        1.000000
X_4_26                        1.000000
X_5_30                        1.000000
X_6_10                        1.000000
X_7_31                        1.000000
X_8_38                        1.000000
X_9_38                        1.000000
X_10_35                       1.000000
X_11_16                       1.000000
X_12_6                        1.000000
X_13_9                        1.000000
X_14_17                       1.000000
X_15_37                       1.000000
X_16_36                       1.000000
X_17_32                       1.000000
X_18_16                       1.000000
X_19_4                        1.000000
X_20_4                        1.000000
X_21_20                       1.000000
X_22_23                       1.000000
X_23_4                        1.000000
X_24_25                       1.000000
X_25_35                       1.000000
X_26_7                        1.000000
X_27_6                        1.000000
X_28_30                       1.000000
X_29_14                       1.000000
X_30_16                       1.000000
X_31_5                        1.000000
X_32_24                       1.000000
X_33_19                       1.000000
X_34_12                       1.000000
X_35_24                       1.000000
X_36_12                       1.000000
X_37_1                        1.000000
X_38_35                       1.000000
X_39_29                       1.000000
X_40_4                        1.000000
X_41_16                       1.000000
X_42_5                        1.000000
X_43_15                       1.000000
X_44_29                       1.000000
X_45_37                       1.000000
X_46_36                       1.000000
X_47_18                       1.000000
X_48_10                       1.000000
X_49_6                        1.000000
X_50_1                        1.000000
X_51_6                        1.000000
X_52_35                       1.000000
X_53_3                        1.000000
X_54_14                       1.000000
X_55_18                       1.000000
X_56_22                       1.000000
X_57_31                       1.000000
X_58_2                        1.000000
X_59_22                       1.000000
X_60_14                       1.000000
X_61_21                       1.000000
X_62_40                       1.000000
X_63_22                       1.000000
X_64_14                       1.000000
X_65_20                       1.000000
X_66_21                       1.000000
X_67_36                       1.000000
X_68_19                       1.000000
X_69_3                        1.000000
X_70_30                       1.000000
X_71_8                        1.000000
X_72_31                       1.000000
X_73_6                        1.000000
X_74_28                       1.000000
X_75_31                       1.000000
X_76_7                        1.000000
X_77_4                        1.000000
X_78_19                       1.000000
X_79_35                       1.000000
X_80_15                       1.000000
X_81_1                        1.000000
X_82_28                       1.000000
X_83_33                       1.000000
X_84_25                       1.000000
X_85_19                       1.000000
X_86_3                        1.000000
X_87_32                       1.000000
X_88_37                       1.000000
X_89_27                       1.000000
X_90_1                        1.000000
X_91_17                       1.000000
X_92_24                       1.000000
X_93_36                       1.000000
X_94_8                        1.000000
X_95_16                       1.000000
X_96_34                       1.000000
X_97_27                       1.000000
X_98_33                       1.000000
X_99_30                       1.000000
X_100_33                      1.000000
X_101_10                      1.000000
X_102_10                      1.000000
X_103_32                      1.000000
X_104_21                      1.000000
X_105_11                      1.000000
X_106_8                       1.000000
X_107_14                      1.000000
X_108_37                      1.000000
X_109_7                       1.000000
X_110_13                      1.000000
X_111_18                      1.000000
X_112_34                      1.000000
X_113_18                      1.000000
X_114_33                      1.000000
X_115_5                       1.000000
X_116_21                      1.000000
X_117_27                      1.000000
X_118_33                      1.000000
X_119_36                      1.000000
X_120_33                      1.000000
X_121_24                      1.000000
X_122_13                      1.000000
X_123_13                      1.000000
X_124_33                      1.000000
X_125_25                      1.000000
X_126_26                      1.000000
X_127_33                      1.000000
X_128_15                      1.000000
X_129_27                      1.000000
X_130_12                      1.000000
X_131_18                      1.000000
X_132_11                      1.000000
X_133_19                      1.000000
X_134_33                      1.000000
X_135_15                      1.000000
X_136_26                      1.000000
X_137_7                       1.000000
X_138_3                       1.000000
X_139_22                      1.000000
X_140_34                      1.000000
X_141_26                      1.000000
X_142_2                       1.000000
X_143_20                      1.000000
X_144_5                       1.000000
X_145_19                      1.000000
X_146_37                      1.000000
X_147_3                       1.000000
X_148_20                      1.000000
X_149_9                       1.000000
X_150_29                      1.000000
X_151_33                      1.000000
X_152_13                      1.000000
X_153_1                       1.000000
X_154_40                      1.000000
X_155_17                      1.000000
X_156_24                      1.000000
X_157_3                       1.000000
X_158_10                      1.000000
X_159_1                       1.000000
X_160_13                      1.000000
X_161_4                       1.000000
X_162_33                      1.000000
X_163_15                      1.000000
X_164_36                      1.000000
X_165_10                      1.000000
X_166_16                      1.000000
X_167_21                      1.000000
X_168_12                      1.000000
X_169_27                      1.000000
X_170_28                      1.000000
X_171_14                      1.000000
X_172_22                      1.000000
X_173_10                      1.000000
X_174_28                      1.000000
X_175_25                      1.000000
X_176_14                      1.000000
X_177_9                       1.000000
X_178_15                      1.000000
X_179_9                       1.000000
X_180_30                      1.000000
X_181_30                      1.000000
X_182_25                      1.000000
X_183_36                      1.000000
X_184_6                       1.000000
X_185_11                      1.000000
X_186_31                      1.000000
X_187_32                      1.000000
X_188_1                       1.000000
X_189_30                      1.000000
X_190_24                      1.000000
X_191_13                      1.000000
X_192_29                      1.000000
X_193_19                      1.000000
X_194_22                      1.000000
X_195_40                      1.000000
X_196_31                      1.000000
X_197_19                      1.000000
X_198_29                      1.000000
X_199_6                       1.000000
X_200_20                      1.000000
X_201_36                      1.000000
X_202_29                      1.000000
X_203_32                      1.000000
X_204_2                       1.000000
X_205_18                      1.000000
X_206_29                      1.000000
X_207_4                       1.000000
X_208_23                      1.000000
X_209_10                      1.000000
X_210_4                       1.000000
X_211_39                      1.000000
X_212_17                      1.000000
X_213_25                      1.000000
X_214_13                      1.000000
X_215_34                      1.000000
X_216_38                      1.000000
X_217_38                      1.000000
X_218_12                      1.000000
X_219_34                      1.000000
X_220_10                      1.000000
X_221_31                      1.000000
X_222_34                      1.000000
X_223_5                       1.000000
X_224_9                       1.000000
X_225_29                      1.000000
X_226_1                       1.000000
X_227_13                      1.000000
X_228_12                      1.000000
X_229_20                      1.000000
X_230_27                      1.000000
X_231_25                      1.000000
X_232_11                      1.000000
X_233_39                      1.000000
X_234_12                      1.000000
X_235_26                      1.000000
X_236_6                       1.000000
X_237_39                      1.000000
X_238_5                       1.000000
X_239_3                       1.000000
X_240_27                      1.000000
X_241_22                      1.000000
X_242_9                       1.000000
X_243_17                      1.000000
X_244_21                      1.000000
X_245_40                      1.000000
X_246_5                       1.000000
X_247_9                       1.000000
X_248_19                      1.000000
X_249_36                      1.000000
X_250_21                      1.000000
X_251_32                      1.000000
X_252_25                      1.000000
X_253_25                      1.000000
X_254_39                      1.000000
X_255_39                      1.000000
X_256_37                      1.000000
X_257_22                      1.000000
X_258_6                       1.000000
X_259_16                      1.000000
X_260_8                       1.000000
X_261_29                      1.000000
X_262_7                       1.000000
X_263_19                      1.000000
X_264_13                      1.000000
X_265_7                       1.000000
X_266_8                       1.000000
X_267_5                       1.000000
X_268_22                      1.000000
X_269_1                       1.000000
X_270_16                      1.000000
X_271_9                       1.000000
X_272_6                       1.000000
X_273_37                      1.000000
X_274_38                      1.000000
X_275_25                      1.000000
X_276_39                      1.000000
X_277_36                      1.000000
X_278_31                      1.000000
X_279_39                      1.000000
X_280_12                      1.000000
X_281_5                       1.000000
X_282_34                      1.000000
X_283_18                      1.000000
X_284_31                      1.000000
X_285_27                      1.000000
X_286_32                      1.000000
X_287_8                       1.000000
X_288_6                       1.000000
X_289_28                      1.000000
X_290_1                       1.000000
X_291_40                      1.000000
X_292_20                      1.000000
X_293_33                      1.000000
X_294_12                      1.000000
X_295_37                      1.000000
X_296_40                      1.000000
X_297_16                      1.000000
X_298_31                      1.000000
X_299_21                      1.000000
X_300_8                       1.000000
X_301_23                      1.000000
X_302_18                      1.000000
X_303_28                      1.000000
X_304_30                      1.000000
X_305_28                      1.000000
X_306_7                       1.000000
X_307_14                      1.000000
X_308_33                      1.000000
X_309_10                      1.000000
X_310_13                      1.000000
X_311_2                       1.000000
X_312_31                      1.000000
X_313_4                       1.000000
X_314_24                      1.000000
X_315_27                      1.000000
X_316_2                       1.000000
X_317_32                      1.000000
X_318_39                      1.000000
X_319_14                      1.000000
X_320_24                      1.000000
X_321_38                      1.000000
X_322_13                      1.000000
X_323_15                      1.000000
X_324_17                      1.000000
X_325_34                      1.000000
X_326_38                      1.000000
X_327_40                      1.000000
X_328_2                       1.000000
X_329_2                       1.000000
X_330_38                      1.000000
X_331_21                      1.000000
X_332_17                      1.000000
X_333_2                       1.000000
X_334_28                      1.000000
X_335_15                      1.000000
X_336_21                      1.000000
X_337_14                      1.000000
X_338_38                      1.000000
X_339_24                      1.000000
X_340_18                      1.000000
X_341_24                      1.000000
X_342_23                      1.000000
X_343_4                       1.000000
X_344_1                       1.000000
X_345_7                       1.000000
X_346_1                       1.000000
X_347_39                      1.000000
X_348_38                      1.000000
X_349_23                      1.000000
X_350_40                      1.000000
X_351_23                      1.000000
X_352_2                       1.000000
X_353_19                      1.000000
X_354_23                      1.000000
X_355_24                      1.000000
X_356_11                      1.000000
X_357_3                       1.000000
X_358_16                      1.000000
X_359_2                       1.000000
X_360_15                      1.000000
X_361_35                      1.000000
X_362_32                      1.000000
X_363_25                      1.000000
X_364_17                      1.000000
X_365_27                      1.000000
X_366_13                      1.000000
X_367_25                      1.000000
X_368_34                      1.000000
X_369_18                      1.000000
X_370_16                      1.000000
X_371_14                      1.000000
X_372_11                      1.000000
X_373_21                      1.000000
X_374_24                      1.000000
X_375_8                       1.000000
X_376_28                      1.000000
X_377_13                      1.000000
X_378_27                      1.000000
X_379_22                      1.000000
X_380_3                       1.000000
X_381_37                      1.000000
X_382_14                      1.000000
X_383_37                      1.000000
X_384_26                      1.000000
X_385_18                      1.000000
X_386_34                      1.000000
X_387_38                      1.000000
X_388_38                      1.000000
X_389_39                      1.000000
X_390_33                      1.000000
X_391_31                      1.000000
X_392_5                       1.000000
X_393_24                      1.000000
X_394_29                      1.000000
X_395_35                      1.000000
X_396_19                      1.000000
X_397_26                      1.000000
X_398_23                      1.000000
X_399_4                       1.000000
X_400_20                      1.000000
X_401_6                       1.000000
X_402_21                      1.000000
X_403_7                       1.000000
X_404_19                      1.000000
X_405_40                      1.000000
X_406_10                      1.000000
X_407_37                      1.000000
X_408_35                      1.000000
X_409_23                      1.000000
X_410_8                       1.000000
X_411_17                      1.000000
X_412_14                      1.000000
X_413_32                      1.000000
X_414_23                      1.000000
X_415_1                       1.000000
X_416_2                       1.000000
X_417_7                       1.000000
X_418_20                      1.000000
X_419_1                       1.000000
X_420_20                      1.000000
X_421_16                      1.000000
X_422_30                      1.000000
X_423_37                      1.000000
X_424_15                      1.000000
X_425_38                      1.000000
X_426_28                      1.000000
X_427_26                      1.000000
X_428_13                      1.000000
X_429_18                      1.000000
X_430_1                       1.000000
X_431_1                       1.000000
X_432_9                       1.000000
X_433_34                      1.000000
X_434_9                       1.000000
X_435_29                      1.000000
X_436_19                      1.000000
X_437_13                      1.000000
X_438_10                      1.000000
X_439_18                      1.000000
X_440_2                       1.000000
X_441_9                       1.000000
X_442_9                       1.000000
X_443_21                      1.000000
X_444_10                      1.000000
X_445_17                      1.000000
X_446_26                      1.000000
X_447_32                      1.000000
X_448_36                      1.000000
X_449_29                      1.000000
X_450_4                       1.000000
X_451_30                      1.000000
X_452_28                      1.000000
X_453_12                      1.000000
X_454_22                      1.000000
X_455_32                      1.000000
X_456_24                      1.000000
X_457_2                       1.000000
X_458_19                      1.000000
X_459_16                      1.000000
X_460_22                      1.000000
X_461_5                       1.000000
X_462_6                       1.000000
X_463_21                      1.000000
X_464_28                      1.000000
X_465_9                       1.000000
X_466_19                      1.000000
X_467_11                      1.000000
X_468_11                      1.000000
X_469_40                      1.000000
X_470_7                       1.000000
X_471_3                       1.000000
X_472_14                      1.000000
X_473_20                      1.000000
X_474_31                      1.000000
X_475_40                      1.000000
X_476_30                      1.000000
X_477_1                       1.000000
X_478_2                       1.000000
X_479_15                      1.000000
X_480_16                      1.000000
X_481_9                       1.000000
X_482_20                      1.000000
X_483_37                      1.000000
X_484_3                       1.000000
X_485_11                      1.000000
X_486_9                       1.000000
X_487_3                       1.000000
X_488_8                       1.000000
X_489_17                      1.000000
X_490_37                      1.000000
X_491_33                      1.000000
X_492_30                      1.000000
X_493_3                       1.000000
X_494_40                      1.000000
X_495_14                      1.000000
X_496_26                      1.000000
X_497_40                      1.000000
X_498_7                       1.000000
X_499_35                      1.000000
X_500_11                      1.000000
All other variables in the range 1-20001 are 0.
